%%% static parameters %%%
timespan = 1;
Fact = [2];
Distr1 = [5];
Distr2 = [10];
Clients_N = [100];
Demand_W = [15];
Lt0 = [4];
Lt1 = [4];
SS_ = [0.85];
DS_D = [8];
K = [200];
MA = [500];
%%% dynamic parameters %%%
lost_ratio_sales_ret_th = 0.16140320757717852;
lost_ratio_sales_ret_w = 10;
lost_ratio_sales_dis_th = 0.4651564964881961;
lost_ratio_sales_dis_w = 89;
lost_ratio_sales_fac_th = 0.7430553059577855;
lost_ratio_sales_fac_w = 12;
stock_customer_MA_mean_relative_th = 0.2909222703882085;
stock_customer_MA_mean_relative_w = 43;
stock_distributor_MA_mean_relative_th = 0.6410103177373965;
stock_distributor_MA_mean_relative_w = 69;
stock_retailer_MA_mean_relative_th = 0.6511440843418106;
stock_retailer_MA_mean_relative_w = 14;
stock_factory_MA_mean_relative_th = 0.9026887663357832;
stock_factory_MA_mean_relative_w = 78;
